20
5
2005005
0
0
72 67 71 73 65 
1
0
64 70 72 68 67 
2
0
63 70 66 70 70 
3
0
27 32 35 28 36 
4
0
85 77 85 85 83 
5
0
83 79 80 83 76 
6
0
53 54 54 46 47 
7
0
67 75 70 73 67 
8
0
76 85 82 86 82 
9
0
16 16 11 16 16 
10
0
97 98 94 91 95 
11
0
17 7 9 9 17 
12
0
42 38 38 41 43 
13
0
92 90 83 90 84 
14
0
83 84 83 76 83 
15
0
89 84 84 88 83 
16
0
1 6 4 3 8 
17
0
32 25 30 27 32 
18
0
56 55 60 59 55 
19
0
92 93 95 86 89 
